\ Model Ore Mixing Problem
\ LP format - for model browsing. Use MPS format to capture full model detail.
Minimize
  1210.653753026634 a_max_00 + 718.9072609633359 a_max_01
   + 224.0645305848084 a_max_02 + 232.0185614849188 a_max_03
   + 279.5638803466592 a_max_04 + 294.8982601002654 a_max_05
   + 1.1363636363636362e+06 a_max_10 + 1.4285714285714274e+07 a_max_11
   + 3.7037037037037034e+06 a_max_12 + 1.6949152542372884e+06 a_max_13
   + 1.282051282051282e+06 a_max_14 + 1.1494252873563219e+06 a_max_15
   + 1e+07 a_max_20 + 2.5e+06 a_max_21 + 277777.7777777778 a_max_22
   + 1.6666666666666667e+06 a_max_23 + 500000 a_max_24
   + 256410.2564102564 a_max_25 + 232558.1395348837 a_max_30
   + 217391.3043478261 a_max_31 + 344827.5862068965 a_max_32
   + 2.5e+06 a_max_33 + 232558.1395348837 a_max_34
   + 434782.6086956522 a_max_35 + 666666.6666666665 a_max_40
   + 166666.6666666667 a_max_41 + 133333.3333333333 a_max_42
   + 588235.294117647 a_max_43 + 1.1111111111111115e+06 a_max_44
   + 232558.1395348837 a_max_45 + 625000 a_max_50 + 312500 a_max_51
   + 68965.5172413793 a_max_52 + 714285.7142857159 a_max_53
   + 123456.7901234569 a_max_54 + 90909.09090909091 a_max_55
   + 272.1829069134459 a_min_00 + 321.6468317787069 a_min_01
   + 27027.02702702721 a_min_02 + 5263.157894736846 a_min_03
   + 1083.423618634886 a_min_04 + 901.7132551848509 a_min_05
   + 1.6129032258064516e+06 a_min_10 + 699300.6993006993 a_min_11
   + 813008.1300813009 a_min_12 + 1.0989010989010991e+06 a_min_13
   + 1.388888888888889e+06 a_min_14 + 1.5873015873015872e+06 a_min_15
   + 204081.6326530612 a_min_20 + 217391.3043478261 a_min_21
   + 714285.7142857142 a_min_22 + 227272.7272727273 a_min_23
   + 333333.3333333334 a_min_24 + 909090.9090909092 a_min_25
   + 1.4285714285714284e+06 a_min_30 + 2.5e+06 a_min_31
   + 476190.4761904762 a_min_32 + 217391.3043478261 a_min_33
   + 1.4285714285714284e+06 a_min_34 + 370370.3703703703 a_min_35
   + 117647.0588235294 a_min_40 + 250000 a_min_41 + 400000 a_min_42
   + 120481.9277108434 a_min_43 + 109890.1098901099 a_min_44
   + 175438.5964912281 a_min_45 + 74626.86567164179 a_min_50
   + 84745.76271186443 a_min_51 + 2.000000000000007e+06 a_min_52
   + 73529.41176470587 a_min_53 + 144927.536231884 a_min_54
   + 250000 a_min_55 + 0.1210653753026634 b_min_00
   + 0.0718907260963336 b_min_01 + 2.702702702702721 b_min_02
   + 0.5263157894736846 b_min_03 + 0.1083423618634886 b_min_04
   + 0.0901713255184851 b_min_05 + 1.612903225806452 b_min_10
   + 14.28571428571427 b_min_11 + 3.703703703703703 b_min_12
   + 1.694915254237288 b_min_13 + 1.388888888888889 b_min_14
   + 1.587301587301587 b_min_15 + 100 b_min_20 + 25 b_min_21
   + 7.142857142857142 b_min_22 + 16.66666666666667 b_min_23 + 5 b_min_24
   + 9.090909090909092 b_min_25 + 14.28571428571428 b_min_30 + 25 b_min_31
   + 4.761904761904762 b_min_32 + 25 b_min_33 + 14.28571428571428 b_min_34
   + 4.347826086956522 b_min_35 + 6.666666666666666 b_min_40 + 2.5 b_min_41
   + 4 b_min_42 + 5.882352941176469 b_min_43 + 11.11111111111111 b_min_44
   + 2.325581395348837 b_min_45 + 6.25 b_min_50 + 3.125 b_min_51
   + 20 b_min_52 + 7.142857142857159 b_min_53 + 1.44927536231884 b_min_54
   + 2.5 b_min_55 + 0.1210653753026634 b_max_00
   + 0.0718907260963336 b_max_01 + 2.702702702702721 b_max_02
   + 0.5263157894736846 b_max_03 + 0.1083423618634886 b_max_04
   + 0.0901713255184851 b_max_05 + 1.612903225806452 b_max_10
   + 14.28571428571427 b_max_11 + 3.703703703703703 b_max_12
   + 1.694915254237288 b_max_13 + 1.388888888888889 b_max_14
   + 1.587301587301587 b_max_15 + 100 b_max_20 + 25 b_max_21
   + 7.142857142857142 b_max_22 + 16.66666666666667 b_max_23 + 5 b_max_24
   + 9.090909090909092 b_max_25 + 14.28571428571428 b_max_30 + 25 b_max_31
   + 4.761904761904762 b_max_32 + 25 b_max_33 + 14.28571428571428 b_max_34
   + 4.347826086956522 b_max_35 + 6.666666666666666 b_max_40 + 2.5 b_max_41
   + 4 b_max_42 + 5.882352941176469 b_max_43 + 11.11111111111111 b_max_44
   + 2.325581395348837 b_max_45 + 6.25 b_max_50 + 3.125 b_max_51
   + 20 b_max_52 + 7.142857142857159 b_max_53 + 1.44927536231884 b_max_54
   + 2.5 b_max_55
Subject To
 input_weight_constr_0: y_00 + y_01 + y_02 + y_03 + y_04 + y_05 + y_06
   + y_07 <= 94.1
 input_weight_constr_1: y_10 + y_11 + y_12 + y_13 + y_14 + y_15 + y_16
   + y_17 <= 94.1
 input_weight_constr_2: y_20 + y_21 + y_22 + y_23 + y_24 + y_25 + y_26
   + y_27 <= 94.1
 capacity_constr_0: y_00 + y_10 + y_20 <= 281.4
 weight_constr_00: x_00 + x_01 + x_02 + x_03 + x_04 + x_05 - y_00
   <= 1617.2
 weight_constr_01: x_00 + x_01 + x_02 + x_03 + x_04 + x_05 - y_10
   <= 1617.2
 weight_constr_02: x_00 + x_01 + x_02 + x_03 + x_04 + x_05 - y_20
   <= 1617.2
 capacity_constr_1: y_01 + y_11 + y_21 <= 180.6
 weight_constr_10: x_10 + x_11 + x_12 + x_13 + x_14 + x_15 - y_01
   <= 1701.3
 weight_constr_11: x_10 + x_11 + x_12 + x_13 + x_14 + x_15 - y_11
   <= 1701.3
 weight_constr_12: x_10 + x_11 + x_12 + x_13 + x_14 + x_15 - y_21
   <= 1701.3
 capacity_constr_2: y_02 + y_12 + y_22 <= 155.3
 weight_constr_20: x_20 + x_21 + x_22 + x_23 + x_24 + x_25 - y_02
   <= 1731.2
 weight_constr_21: x_20 + x_21 + x_22 + x_23 + x_24 + x_25 - y_12
   <= 1731.2
 weight_constr_22: x_20 + x_21 + x_22 + x_23 + x_24 + x_25 - y_22
   <= 1731.2
 capacity_constr_3: y_03 + y_13 + y_23 <= 298
 weight_constr_30: x_30 + x_31 + x_32 + x_33 + x_34 + x_35 - y_03
   <= 1409.1
 weight_constr_31: x_30 + x_31 + x_32 + x_33 + x_34 + x_35 - y_13
   <= 1409.1
 weight_constr_32: x_30 + x_31 + x_32 + x_33 + x_34 + x_35 - y_23
   <= 1409.1
 capacity_constr_4: y_04 + y_14 + y_24 <= 347.1
 weight_constr_40: x_40 + x_41 + x_42 + x_43 + x_44 + x_45 - y_04
   <= 1394.1
 weight_constr_41: x_40 + x_41 + x_42 + x_43 + x_44 + x_45 - y_14
   <= 1394.1
 weight_constr_42: x_40 + x_41 + x_42 + x_43 + x_44 + x_45 - y_24
   <= 1394.1
 capacity_constr_5: y_05 + y_15 + y_25 <= 54.5
 weight_constr_50: x_50 + x_51 + x_52 + x_53 + x_54 + x_55 - y_05
   <= 1839.4
 weight_constr_51: x_50 + x_51 + x_52 + x_53 + x_54 + x_55 - y_15
   <= 1839.4
 weight_constr_52: x_50 + x_51 + x_52 + x_53 + x_54 + x_55 - y_25
   <= 1839.4
 capacity_constr_6: y_06 + y_16 + y_26 <= 210.3
 weight_constr_60: x_60 + x_61 + x_62 + x_63 + x_64 + x_65 - y_06
   <= 1822.6
 weight_constr_61: x_60 + x_61 + x_62 + x_63 + x_64 + x_65 - y_16
   <= 1822.6
 weight_constr_62: x_60 + x_61 + x_62 + x_63 + x_64 + x_65 - y_26
   <= 1822.6
 capacity_constr_7: y_07 + y_17 + y_27 <= 151.1
 weight_constr_70: x_70 + x_71 + x_72 + x_73 + x_74 + x_75 - y_07
   <= 1426.2
 weight_constr_71: x_70 + x_71 + x_72 + x_73 + x_74 + x_75 - y_17
   <= 1426.2
 weight_constr_72: x_70 + x_71 + x_72 + x_73 + x_74 + x_75 - y_27
   <= 1426.2
 demand_constr_0: x_00 + x_10 + x_20 + x_30 + x_40 + x_50 + x_60 + x_70
   = 1295.9
 min_quality_constr_00: 18.68 x_00 + 28.16 x_10 + 41.02 x_20 + 32.49 x_30
   + 36.28 x_40 + 14.94 x_50 - 9.12 x_60 + 7.45 x_70 + 1295.9 a_min_00
   >= -0
 max_quality_constr_00: - 26.32 x_00 - 16.84 x_10 - 3.98 x_20 - 12.51 x_30
   - 8.72 x_40 - 30.06 x_50 - 54.12 x_60 - 37.55 x_70 - 1295.9 a_max_00
   <= -0
 goal_quality_constr_00: - 18.06 x_00 - 8.58 x_10 + 4.28 x_20 - 4.25 x_30
   - 0.46 x_40 - 21.8 x_50 - 45.86 x_60 - 29.29 x_70 + 1295.9 b_min_00
   - 1295.9 b_max_00 = -0
 min_quality_constr_10: 0.81 x_00 + 0.84 x_10 + 0.44 x_20 + 0.43 x_30
   + 0.12 x_40 + 0.33 x_50 + 1.16 x_60 + 0.99 x_70 + 1295.9 a_min_10 >= -0
 max_quality_constr_10: - 0.69 x_00 - 0.66 x_10 - 1.06 x_20 - 1.07 x_30
   - 1.38 x_40 - 1.17 x_50 - 0.34 x_60 - 0.51 x_70 - 1295.9 a_max_10 <= -0
 goal_quality_constr_10: 0.19 x_00 + 0.22 x_10 - 0.18 x_20 - 0.19 x_30
   - 0.5 x_40 - 0.29 x_50 + 0.54 x_60 + 0.37 x_70 + 1295.9 b_min_10
   - 1295.9 b_max_10 = -0
 min_quality_constr_20: 3.53 x_00 + 4.13 x_10 + 3.18 x_20 + 0.54 x_30
   + 4.98 x_40 + 4.09 x_50 + 5.59 x_60 + 0.45 x_70 + 1295.9 a_min_20 >= -0
 max_quality_constr_20: 3.03 x_00 + 3.63 x_10 + 2.68 x_20 + 0.04 x_30
   + 4.48 x_40 + 3.59 x_50 + 5.09 x_60 - 0.05 x_70 - 1295.9 a_max_20 <= -0
 goal_quality_constr_20: 3.04 x_00 + 3.64 x_10 + 2.69 x_20 + 0.05 x_30
   + 4.49 x_40 + 3.6 x_50 + 5.1 x_60 - 0.04 x_70 + 1295.9 b_min_20
   - 1295.9 b_max_20 = -0
 min_quality_constr_30: 2.69 x_00 + 5.99 x_10 + 5.92 x_20 + 2.6 x_30
   + 1.45 x_40 + 3.76 x_50 + 5.37 x_60 + 5.48 x_70 + 1295.9 a_min_30 >= -0
 max_quality_constr_30: 2.19 x_00 + 5.49 x_10 + 5.42 x_20 + 2.1 x_30
   + 0.95 x_40 + 3.26 x_50 + 4.87 x_60 + 4.98 x_70 - 1295.9 a_max_30 <= -0
 goal_quality_constr_30: 2.62 x_00 + 5.92 x_10 + 5.85 x_20 + 2.53 x_30
   + 1.38 x_40 + 3.69 x_50 + 5.3 x_60 + 5.41 x_70 + 1295.9 b_min_30
   - 1295.9 b_max_30 = -0
 min_quality_constr_40: 0.17 x_00 + 0.87 x_10 + 1.15 x_20 + 0.33 x_30
   + 0.61 x_40 + 0.88 x_50 + 0.89 x_60 + 1.01 x_70 + 1295.9 a_min_40 >= -0
 max_quality_constr_40: - 0.83 x_00 - 0.13 x_10 + 0.15 x_20 - 0.67 x_30
   - 0.39 x_40 - 0.12 x_50 - 0.11 x_60 + 0.01 x_70 - 1295.9 a_max_40 <= -0
 goal_quality_constr_40: - 0.68 x_00 + 0.02 x_10 + 0.3 x_20 - 0.52 x_30
   - 0.24 x_40 + 0.03 x_50 + 0.04 x_60 + 0.16 x_70 + 1295.9 b_min_40
   - 1295.9 b_max_40 = -0
 min_quality_constr_50: - 0.5 x_00 + 0.25 x_10 + 0.63 x_20 + 1.15 x_30
   + 1.71 x_40 + 1.33 x_50 - 0.58 x_60 + 2.3 x_70 + 1295.9 a_min_50 >= -0
 max_quality_constr_50: - 2 x_00 - 1.25 x_10 - 0.87 x_20 - 0.35 x_30
   + 0.21 x_40 - 0.17 x_50 - 2.08 x_60 + 0.8 x_70 - 1295.9 a_max_50 <= -0
 goal_quality_constr_50: - 1.84 x_00 - 1.09 x_10 - 0.71 x_20 - 0.19 x_30
   + 0.37 x_40 - 0.01 x_50 - 1.92 x_60 + 0.96 x_70 + 1295.9 b_min_50
   - 1295.9 b_max_50 = -0
 demand_constr_1: x_01 + x_11 + x_21 + x_31 + x_41 + x_51 + x_61 + x_71
   = 1223.9
 min_quality_constr_01: 18.68 x_01 + 28.16 x_11 + 41.02 x_21 + 32.49 x_31
   + 36.28 x_41 + 14.94 x_51 - 9.12 x_61 + 7.45 x_71 + 1223.9 a_min_01
   >= -0
 max_quality_constr_01: - 26.32 x_01 - 16.84 x_11 - 3.98 x_21 - 12.51 x_31
   - 8.72 x_41 - 30.06 x_51 - 54.12 x_61 - 37.55 x_71 - 1223.9 a_max_01
   <= -0
 goal_quality_constr_01: - 12.41 x_01 - 2.93 x_11 + 9.93 x_21 + 1.4 x_31
   + 5.19 x_41 - 16.15 x_51 - 40.21 x_61 - 23.64 x_71 + 1223.9 b_min_01
   - 1223.9 b_max_01 = -0
 min_quality_constr_11: 0.81 x_01 + 0.84 x_11 + 0.44 x_21 + 0.43 x_31
   + 0.12 x_41 + 0.33 x_51 + 1.16 x_61 + 0.99 x_71 + 1223.9 a_min_11 >= -0
 max_quality_constr_11: - 0.69 x_01 - 0.66 x_11 - 1.06 x_21 - 1.07 x_31
   - 1.38 x_41 - 1.17 x_51 - 0.34 x_61 - 0.51 x_71 - 1223.9 a_max_11 <= -0
 goal_quality_constr_11: - 0.62 x_01 - 0.59 x_11 - 0.99 x_21 - x_31
   - 1.31 x_41 - 1.1 x_51 - 0.27 x_61 - 0.44 x_71 + 1223.9 b_min_11
   - 1223.9 b_max_11 = -0
 min_quality_constr_21: 3.53 x_01 + 4.13 x_11 + 3.18 x_21 + 0.54 x_31
   + 4.98 x_41 + 4.09 x_51 + 5.59 x_61 + 0.45 x_71 + 1223.9 a_min_21 >= -0
 max_quality_constr_21: 3.03 x_01 + 3.63 x_11 + 2.68 x_21 + 0.04 x_31
   + 4.48 x_41 + 3.59 x_51 + 5.09 x_61 - 0.05 x_71 - 1223.9 a_max_21 <= -0
 goal_quality_constr_21: 3.07 x_01 + 3.67 x_11 + 2.72 x_21 + 0.08 x_31
   + 4.52 x_41 + 3.63 x_51 + 5.13 x_61 - 0.01 x_71 + 1223.9 b_min_21
   - 1223.9 b_max_21 = -0
 min_quality_constr_31: 2.69 x_01 + 5.99 x_11 + 5.92 x_21 + 2.6 x_31
   + 1.45 x_41 + 3.76 x_51 + 5.37 x_61 + 5.48 x_71 + 1223.9 a_min_31 >= -0
 max_quality_constr_31: 2.19 x_01 + 5.49 x_11 + 5.42 x_21 + 2.1 x_31
   + 0.95 x_41 + 3.26 x_51 + 4.87 x_61 + 4.98 x_71 - 1223.9 a_max_31 <= -0
 goal_quality_constr_31: 2.65 x_01 + 5.95 x_11 + 5.88 x_21 + 2.56 x_31
   + 1.41 x_41 + 3.72 x_51 + 5.33 x_61 + 5.44 x_71 + 1223.9 b_min_31
   - 1223.9 b_max_31 = -0
 min_quality_constr_41: 0.17 x_01 + 0.87 x_11 + 1.15 x_21 + 0.33 x_31
   + 0.61 x_41 + 0.88 x_51 + 0.89 x_61 + 1.01 x_71 + 1223.9 a_min_41 >= -0
 max_quality_constr_41: - 0.83 x_01 - 0.13 x_11 + 0.15 x_21 - 0.67 x_31
   - 0.39 x_41 - 0.12 x_51 - 0.11 x_61 + 0.01 x_71 - 1223.9 a_max_41 <= -0
 goal_quality_constr_41: - 0.23 x_01 + 0.47 x_11 + 0.75 x_21 - 0.07 x_31
   + 0.21 x_41 + 0.48 x_51 + 0.49 x_61 + 0.61 x_71 + 1223.9 b_min_41
   - 1223.9 b_max_41 = -0
 min_quality_constr_51: - 0.5 x_01 + 0.25 x_11 + 0.63 x_21 + 1.15 x_31
   + 1.71 x_41 + 1.33 x_51 - 0.58 x_61 + 2.3 x_71 + 1223.9 a_min_51 >= -0
 max_quality_constr_51: - 2 x_01 - 1.25 x_11 - 0.87 x_21 - 0.35 x_31
   + 0.21 x_41 - 0.17 x_51 - 2.08 x_61 + 0.8 x_71 - 1223.9 a_max_51 <= -0
 goal_quality_constr_51: - 1.68 x_01 - 0.93 x_11 - 0.55 x_21 - 0.03 x_31
   + 0.53 x_41 + 0.15 x_51 - 1.76 x_61 + 1.12 x_71 + 1223.9 b_min_51
   - 1223.9 b_max_51 = -0
 demand_constr_2: x_02 + x_12 + x_22 + x_32 + x_42 + x_52 + x_62 + x_72
   = 1307.1
 min_quality_constr_02: 18.68 x_02 + 28.16 x_12 + 41.02 x_22 + 32.49 x_32
   + 36.28 x_42 + 14.94 x_52 - 9.12 x_62 + 7.45 x_72 + 1307.1 a_min_02
   >= -0
 max_quality_constr_02: - 26.32 x_02 - 16.84 x_12 - 3.98 x_22 - 12.51 x_32
   - 8.72 x_42 - 30.06 x_52 - 54.12 x_62 - 37.55 x_72 - 1307.1 a_max_02
   <= -0
 goal_quality_constr_02: 18.31 x_02 + 27.79 x_12 + 40.65 x_22 + 32.12 x_32
   + 35.91 x_42 + 14.57 x_52 - 9.49 x_62 + 7.08 x_72 + 1307.1 b_min_02
   - 1307.1 b_max_02 = -0
 min_quality_constr_12: 0.81 x_02 + 0.84 x_12 + 0.44 x_22 + 0.43 x_32
   + 0.12 x_42 + 0.33 x_52 + 1.16 x_62 + 0.99 x_72 + 1307.1 a_min_12 >= -0
 max_quality_constr_12: - 0.69 x_02 - 0.66 x_12 - 1.06 x_22 - 1.07 x_32
   - 1.38 x_42 - 1.17 x_52 - 0.34 x_62 - 0.51 x_72 - 1307.1 a_max_12 <= -0
 goal_quality_constr_12: - 0.42 x_02 - 0.39 x_12 - 0.79 x_22 - 0.8 x_32
   - 1.11 x_42 - 0.9 x_52 - 0.07 x_62 - 0.24 x_72 + 1307.1 b_min_12
   - 1307.1 b_max_12 = -0
 min_quality_constr_22: 3.53 x_02 + 4.13 x_12 + 3.18 x_22 + 0.54 x_32
   + 4.98 x_42 + 4.09 x_52 + 5.59 x_62 + 0.45 x_72 + 1307.1 a_min_22 >= -0
 max_quality_constr_22: 3.03 x_02 + 3.63 x_12 + 2.68 x_22 + 0.04 x_32
   + 4.48 x_42 + 3.59 x_52 + 5.09 x_62 - 0.05 x_72 - 1307.1 a_max_22 <= -0
 goal_quality_constr_22: 3.39 x_02 + 3.99 x_12 + 3.04 x_22 + 0.4 x_32
   + 4.84 x_42 + 3.95 x_52 + 5.45 x_62 + 0.31 x_72 + 1307.1 b_min_22
   - 1307.1 b_max_22 = -0
 min_quality_constr_32: 2.69 x_02 + 5.99 x_12 + 5.92 x_22 + 2.6 x_32
   + 1.45 x_42 + 3.76 x_52 + 5.37 x_62 + 5.48 x_72 + 1307.1 a_min_32 >= -0
 max_quality_constr_32: 2.19 x_02 + 5.49 x_12 + 5.42 x_22 + 2.1 x_32
   + 0.95 x_42 + 3.26 x_52 + 4.87 x_62 + 4.98 x_72 - 1307.1 a_max_32 <= -0
 goal_quality_constr_32: 2.48 x_02 + 5.78 x_12 + 5.71 x_22 + 2.39 x_32
   + 1.24 x_42 + 3.55 x_52 + 5.16 x_62 + 5.27 x_72 + 1307.1 b_min_32
   - 1307.1 b_max_32 = -0
 min_quality_constr_42: 0.17 x_02 + 0.87 x_12 + 1.15 x_22 + 0.33 x_32
   + 0.61 x_42 + 0.88 x_52 + 0.89 x_62 + 1.01 x_72 + 1307.1 a_min_42 >= -0
 max_quality_constr_42: - 0.83 x_02 - 0.13 x_12 + 0.15 x_22 - 0.67 x_32
   - 0.39 x_42 - 0.12 x_52 - 0.11 x_62 + 0.01 x_72 - 1307.1 a_max_42 <= -0
 goal_quality_constr_42: - 0.08 x_02 + 0.62 x_12 + 0.9 x_22 + 0.08 x_32
   + 0.36 x_42 + 0.63 x_52 + 0.64 x_62 + 0.76 x_72 + 1307.1 b_min_42
   - 1307.1 b_max_42 = -0
 min_quality_constr_52: - 0.5 x_02 + 0.25 x_12 + 0.63 x_22 + 1.15 x_32
   + 1.71 x_42 + 1.33 x_52 - 0.58 x_62 + 2.3 x_72 + 1307.1 a_min_52 >= -0
 max_quality_constr_52: - 2 x_02 - 1.25 x_12 - 0.87 x_22 - 0.35 x_32
   + 0.21 x_42 - 0.17 x_52 - 2.08 x_62 + 0.8 x_72 - 1307.1 a_max_52 <= -0
 goal_quality_constr_52: - 0.55 x_02 + 0.2 x_12 + 0.58 x_22 + 1.1 x_32
   + 1.66 x_42 + 1.28 x_52 - 0.63 x_62 + 2.25 x_72 + 1307.1 b_min_52
   - 1307.1 b_max_52 = -0
 demand_constr_3: x_03 + x_13 + x_23 + x_33 + x_43 + x_53 + x_63 + x_73
   = 1515.2
 min_quality_constr_03: 18.68 x_03 + 28.16 x_13 + 41.02 x_23 + 32.49 x_33
   + 36.28 x_43 + 14.94 x_53 - 9.12 x_63 + 7.45 x_73 + 1515.2 a_min_03
   >= -0
 max_quality_constr_03: - 26.32 x_03 - 16.84 x_13 - 3.98 x_23 - 12.51 x_33
   - 8.72 x_43 - 30.06 x_53 - 54.12 x_63 - 37.55 x_73 - 1515.2 a_max_03
   <= -0
 goal_quality_constr_03: 16.78 x_03 + 26.26 x_13 + 39.12 x_23 + 30.59 x_33
   + 34.38 x_43 + 13.04 x_53 - 11.02 x_63 + 5.55 x_73 + 1515.2 b_min_03
   - 1515.2 b_max_03 = -0
 min_quality_constr_13: 0.81 x_03 + 0.84 x_13 + 0.44 x_23 + 0.43 x_33
   + 0.12 x_43 + 0.33 x_53 + 1.16 x_63 + 0.99 x_73 + 1515.2 a_min_13 >= -0
 max_quality_constr_13: - 0.69 x_03 - 0.66 x_13 - 1.06 x_23 - 1.07 x_33
   - 1.38 x_43 - 1.17 x_53 - 0.34 x_63 - 0.51 x_73 - 1515.2 a_max_13 <= -0
 goal_quality_constr_13: - 0.1 x_03 - 0.07 x_13 - 0.47 x_23 - 0.48 x_33
   - 0.79 x_43 - 0.58 x_53 + 0.25 x_63 + 0.08 x_73 + 1515.2 b_min_13
   - 1515.2 b_max_13 = -0
 min_quality_constr_23: 3.53 x_03 + 4.13 x_13 + 3.18 x_23 + 0.54 x_33
   + 4.98 x_43 + 4.09 x_53 + 5.59 x_63 + 0.45 x_73 + 1515.2 a_min_23 >= -0
 max_quality_constr_23: 3.03 x_03 + 3.63 x_13 + 2.68 x_23 + 0.04 x_33
   + 4.48 x_43 + 3.59 x_53 + 5.09 x_63 - 0.05 x_73 - 1515.2 a_max_23 <= -0
 goal_quality_constr_23: 3.09 x_03 + 3.69 x_13 + 2.74 x_23 + 0.1 x_33
   + 4.54 x_43 + 3.65 x_53 + 5.15 x_63 + 0.01 x_73 + 1515.2 b_min_23
   - 1515.2 b_max_23 = -0
 min_quality_constr_33: 2.69 x_03 + 5.99 x_13 + 5.92 x_23 + 2.6 x_33
   + 1.45 x_43 + 3.76 x_53 + 5.37 x_63 + 5.48 x_73 + 1515.2 a_min_33 >= -0
 max_quality_constr_33: 2.19 x_03 + 5.49 x_13 + 5.42 x_23 + 2.1 x_33
   + 0.95 x_43 + 3.26 x_53 + 4.87 x_63 + 4.98 x_73 - 1515.2 a_max_33 <= -0
 goal_quality_constr_33: 2.23 x_03 + 5.53 x_13 + 5.46 x_23 + 2.14 x_33
   + 0.99 x_43 + 3.3 x_53 + 4.91 x_63 + 5.02 x_73 + 1515.2 b_min_33
   - 1515.2 b_max_33 = -0
 min_quality_constr_43: 0.17 x_03 + 0.87 x_13 + 1.15 x_23 + 0.33 x_33
   + 0.61 x_43 + 0.88 x_53 + 0.89 x_63 + 1.01 x_73 + 1515.2 a_min_43 >= -0
 max_quality_constr_43: - 0.83 x_03 - 0.13 x_13 + 0.15 x_23 - 0.67 x_33
   - 0.39 x_43 - 0.12 x_53 - 0.11 x_63 + 0.01 x_73 - 1515.2 a_max_43 <= -0
 goal_quality_constr_43: - 0.66 x_03 + 0.04 x_13 + 0.32 x_23 - 0.5 x_33
   - 0.22 x_43 + 0.05 x_53 + 0.06 x_63 + 0.18 x_73 + 1515.2 b_min_43
   - 1515.2 b_max_43 = -0
 min_quality_constr_53: - 0.5 x_03 + 0.25 x_13 + 0.63 x_23 + 1.15 x_33
   + 1.71 x_43 + 1.33 x_53 - 0.58 x_63 + 2.3 x_73 + 1515.2 a_min_53 >= -0
 max_quality_constr_53: - 2 x_03 - 1.25 x_13 - 0.87 x_23 - 0.35 x_33
   + 0.21 x_43 - 0.17 x_53 - 2.08 x_63 + 0.8 x_73 - 1515.2 a_max_53 <= -0
 goal_quality_constr_53: - 1.86 x_03 - 1.11 x_13 - 0.73 x_23 - 0.21 x_33
   + 0.35 x_43 - 0.03 x_53 - 1.94 x_63 + 0.94 x_73 + 1515.2 b_min_53
   - 1515.2 b_max_53 = -0
 demand_constr_4: x_04 + x_14 + x_24 + x_34 + x_44 + x_54 + x_64 + x_74
   = 1363.9
 min_quality_constr_04: 18.68 x_04 + 28.16 x_14 + 41.02 x_24 + 32.49 x_34
   + 36.28 x_44 + 14.94 x_54 - 9.12 x_64 + 7.45 x_74 + 1363.9 a_min_04
   >= -0
 max_quality_constr_04: - 26.32 x_04 - 16.84 x_14 - 3.98 x_24 - 12.51 x_34
   - 8.72 x_44 - 30.06 x_54 - 54.12 x_64 - 37.55 x_74 - 1363.9 a_max_04
   <= -0
 goal_quality_constr_04: 9.45 x_04 + 18.93 x_14 + 31.79 x_24 + 23.26 x_34
   + 27.05 x_44 + 5.71 x_54 - 18.35 x_64 - 1.78 x_74 + 1363.9 b_min_04
   - 1363.9 b_max_04 = -0
 min_quality_constr_14: 0.81 x_04 + 0.84 x_14 + 0.44 x_24 + 0.43 x_34
   + 0.12 x_44 + 0.33 x_54 + 1.16 x_64 + 0.99 x_74 + 1363.9 a_min_14 >= -0
 max_quality_constr_14: - 0.69 x_04 - 0.66 x_14 - 1.06 x_24 - 1.07 x_34
   - 1.38 x_44 - 1.17 x_54 - 0.34 x_64 - 0.51 x_74 - 1363.9 a_max_14 <= -0
 goal_quality_constr_14: 0.09 x_04 + 0.12 x_14 - 0.28 x_24 - 0.29 x_34
   - 0.6 x_44 - 0.39 x_54 + 0.44 x_64 + 0.27 x_74 + 1363.9 b_min_14
   - 1363.9 b_max_14 = -0
 min_quality_constr_24: 3.53 x_04 + 4.13 x_14 + 3.18 x_24 + 0.54 x_34
   + 4.98 x_44 + 4.09 x_54 + 5.59 x_64 + 0.45 x_74 + 1363.9 a_min_24 >= -0
 max_quality_constr_24: 3.03 x_04 + 3.63 x_14 + 2.68 x_24 + 0.04 x_34
   + 4.48 x_44 + 3.59 x_54 + 5.09 x_64 - 0.05 x_74 - 1363.9 a_max_24 <= -0
 goal_quality_constr_24: 3.23 x_04 + 3.83 x_14 + 2.88 x_24 + 0.24 x_34
   + 4.68 x_44 + 3.79 x_54 + 5.29 x_64 + 0.15 x_74 + 1363.9 b_min_24
   - 1363.9 b_max_24 = -0
 min_quality_constr_34: 2.69 x_04 + 5.99 x_14 + 5.92 x_24 + 2.6 x_34
   + 1.45 x_44 + 3.76 x_54 + 5.37 x_64 + 5.48 x_74 + 1363.9 a_min_34 >= -0
 max_quality_constr_34: 2.19 x_04 + 5.49 x_14 + 5.42 x_24 + 2.1 x_34
   + 0.95 x_44 + 3.26 x_54 + 4.87 x_64 + 4.98 x_74 - 1363.9 a_max_34 <= -0
 goal_quality_constr_34: 2.62 x_04 + 5.92 x_14 + 5.85 x_24 + 2.53 x_34
   + 1.38 x_44 + 3.69 x_54 + 5.3 x_64 + 5.41 x_74 + 1363.9 b_min_34
   - 1363.9 b_max_34 = -0
 min_quality_constr_44: 0.17 x_04 + 0.87 x_14 + 1.15 x_24 + 0.33 x_34
   + 0.61 x_44 + 0.88 x_54 + 0.89 x_64 + 1.01 x_74 + 1363.9 a_min_44 >= -0
 max_quality_constr_44: - 0.83 x_04 - 0.13 x_14 + 0.15 x_24 - 0.67 x_34
   - 0.39 x_44 - 0.12 x_54 - 0.11 x_64 + 0.01 x_74 - 1363.9 a_max_44 <= -0
 goal_quality_constr_44: - 0.74 x_04 - 0.04 x_14 + 0.24 x_24 - 0.58 x_34
   - 0.3 x_44 - 0.03 x_54 - 0.02 x_64 + 0.1 x_74 + 1363.9 b_min_44
   - 1363.9 b_max_44 = -0
 min_quality_constr_54: - 0.5 x_04 + 0.25 x_14 + 0.63 x_24 + 1.15 x_34
   + 1.71 x_44 + 1.33 x_54 - 0.58 x_64 + 2.3 x_74 + 1363.9 a_min_54 >= -0
 max_quality_constr_54: - 2 x_04 - 1.25 x_14 - 0.87 x_24 - 0.35 x_34
   + 0.21 x_44 - 0.17 x_54 - 2.08 x_64 + 0.8 x_74 - 1363.9 a_max_54 <= -0
 goal_quality_constr_54: - 1.19 x_04 - 0.44 x_14 - 0.06 x_24 + 0.46 x_34
   + 1.02 x_44 + 0.64 x_54 - 1.27 x_64 + 1.61 x_74 + 1363.9 b_min_54
   - 1363.9 b_max_54 = -0
 demand_constr_5: x_05 + x_15 + x_25 + x_35 + x_45 + x_55 + x_65 + x_75
   = 1671.9
 min_quality_constr_05: 18.68 x_05 + 28.16 x_15 + 41.02 x_25 + 32.49 x_35
   + 36.28 x_45 + 14.94 x_55 - 9.12 x_65 + 7.45 x_75 + 1671.9 a_min_05
   >= -0
 max_quality_constr_05: - 26.32 x_05 - 16.84 x_15 - 3.98 x_25 - 12.51 x_35
   - 8.72 x_45 - 30.06 x_55 - 54.12 x_65 - 37.55 x_75 - 1671.9 a_max_05
   <= -0
 goal_quality_constr_05: 7.59 x_05 + 17.07 x_15 + 29.93 x_25 + 21.4 x_35
   + 25.19 x_45 + 3.85 x_55 - 20.21 x_65 - 3.64 x_75 + 1671.9 b_min_05
   - 1671.9 b_max_05 = -0
 min_quality_constr_15: 0.81 x_05 + 0.84 x_15 + 0.44 x_25 + 0.43 x_35
   + 0.12 x_45 + 0.33 x_55 + 1.16 x_65 + 0.99 x_75 + 1671.9 a_min_15 >= -0
 max_quality_constr_15: - 0.69 x_05 - 0.66 x_15 - 1.06 x_25 - 1.07 x_35
   - 1.38 x_45 - 1.17 x_55 - 0.34 x_65 - 0.51 x_75 - 1671.9 a_max_15 <= -0
 goal_quality_constr_15: 0.18 x_05 + 0.21 x_15 - 0.19 x_25 - 0.2 x_35
   - 0.51 x_45 - 0.3 x_55 + 0.53 x_65 + 0.36 x_75 + 1671.9 b_min_15
   - 1671.9 b_max_15 = -0
 min_quality_constr_25: 3.53 x_05 + 4.13 x_15 + 3.18 x_25 + 0.54 x_35
   + 4.98 x_45 + 4.09 x_55 + 5.59 x_65 + 0.45 x_75 + 1671.9 a_min_25 >= -0
 max_quality_constr_25: 3.03 x_05 + 3.63 x_15 + 2.68 x_25 + 0.04 x_35
   + 4.48 x_45 + 3.59 x_55 + 5.09 x_65 - 0.05 x_75 - 1671.9 a_max_25 <= -0
 goal_quality_constr_25: 3.42 x_05 + 4.02 x_15 + 3.07 x_25 + 0.43 x_35
   + 4.87 x_45 + 3.98 x_55 + 5.48 x_65 + 0.34 x_75 + 1671.9 b_min_25
   - 1671.9 b_max_25 = -0
 min_quality_constr_35: 2.69 x_05 + 5.99 x_15 + 5.92 x_25 + 2.6 x_35
   + 1.45 x_45 + 3.76 x_55 + 5.37 x_65 + 5.48 x_75 + 1671.9 a_min_35 >= -0
 max_quality_constr_35: 2.19 x_05 + 5.49 x_15 + 5.42 x_25 + 2.1 x_35
   + 0.95 x_45 + 3.26 x_55 + 4.87 x_65 + 4.98 x_75 - 1671.9 a_max_35 <= -0
 goal_quality_constr_35: 2.42 x_05 + 5.72 x_15 + 5.65 x_25 + 2.33 x_35
   + 1.18 x_45 + 3.49 x_55 + 5.1 x_65 + 5.21 x_75 + 1671.9 b_min_35
   - 1671.9 b_max_35 = -0
 min_quality_constr_45: 0.17 x_05 + 0.87 x_15 + 1.15 x_25 + 0.33 x_35
   + 0.61 x_45 + 0.88 x_55 + 0.89 x_65 + 1.01 x_75 + 1671.9 a_min_45 >= -0
 max_quality_constr_45: - 0.83 x_05 - 0.13 x_15 + 0.15 x_25 - 0.67 x_35
   - 0.39 x_45 - 0.12 x_55 - 0.11 x_65 + 0.01 x_75 - 1671.9 a_max_45 <= -0
 goal_quality_constr_45: - 0.4 x_05 + 0.3 x_15 + 0.58 x_25 - 0.24 x_35
   + 0.04 x_45 + 0.31 x_55 + 0.32 x_65 + 0.44 x_75 + 1671.9 b_min_45
   - 1671.9 b_max_45 = -0
 min_quality_constr_55: - 0.5 x_05 + 0.25 x_15 + 0.63 x_25 + 1.15 x_35
   + 1.71 x_45 + 1.33 x_55 - 0.58 x_65 + 2.3 x_75 + 1671.9 a_min_55 >= -0
 max_quality_constr_55: - 2 x_05 - 1.25 x_15 - 0.87 x_25 - 0.35 x_35
   + 0.21 x_45 - 0.17 x_55 - 2.08 x_65 + 0.8 x_75 - 1671.9 a_max_55 <= -0
 goal_quality_constr_55: - 0.9 x_05 - 0.15 x_15 + 0.23 x_25 + 0.75 x_35
   + 1.31 x_45 + 0.93 x_55 - 0.98 x_65 + 1.9 x_75 + 1671.9 b_min_55
   - 1671.9 b_max_55 = -0
Bounds
End
